NAME: PointSet_Angle_10_5
TYPE: TSP
COMMENT: Points chosen discrete uniformly at random out of ${0, \ldots, 500}^2$.
DIMENSION: 10
EDGE_WEIGHT_TYPE: EUC_2D
NODE_COORD_SECTION
1 7 86
2 270 30
3 224 244
4 302 393
5 387 337
6 339 89
7 477 213
8 148 116
9 262 483
10 331 128
EOF
